Set parameter Username
Academic license - for non-commercial use only - expires 2024-02-22
Warning: Gurobi version mismatch between Python 9.5.0 and C library 9.5.2
Set parameter TimeLimit to value 3600
Set parameter MIPGap to value 1e-06
Set parameter Threads to value 1
Gurobi Optimizer version 9.5.2 build v9.5.2rc0 (linux64)
Thread count: 4 physical cores, 4 logical processors, using up to 1 threads
Optimize a model with 260 rows, 312 columns and 674 nonzeros
Model fingerprint: 0xa951914d
Variable types: 208 continuous, 104 integer (104 binary)
Coefficient statistics:
  Matrix range     [1e+00, 2e+02]
  Objective range  [2e-01, 2e+03]
  Bounds range     [1e+00, 1e+00]
  RHS range        [3e+01, 2e+02]
Found heuristic solution: objective 72019.000000
Presolve removed 5 rows and 5 columns
Presolve time: 0.00s
Presolved: 255 rows, 307 columns, 664 nonzeros
Variable types: 204 continuous, 103 integer (103 binary)

Root relaxation: objective 2.803008e+04, 209 iterations, 0.00 seconds (0.00 work units)

    Nodes    |    Current Node    |     Objective Bounds      |     Work
 Expl Unexpl |  Obj  Depth IntInf | Incumbent    BestBd   Gap | It/Node Time

     0     0 28030.0772    0   54 72019.0000 28030.0772  61.1%     -    0s
H    0     0                    46117.400000 28030.0772  39.2%     -    0s
H    0     0                    36789.800000 28030.0772  23.8%     -    0s
     0     0 30178.7433    0   52 36789.8000 30178.7433  18.0%     -    0s
     0     0 30182.7623    0   52 36789.8000 30182.7623  18.0%     -    0s
     0     0 30728.8148    0   51 36789.8000 30728.8148  16.5%     -    0s
H    0     0                    36780.000000 30728.8148  16.5%     -    0s
H    0     0                    36372.000000 30728.8148  15.5%     -    0s
     0     0 30768.5919    0   48 36372.0000 30768.5919  15.4%     -    0s
     0     0 30773.9634    0   53 36372.0000 30773.9634  15.4%     -    0s
     0     0 30774.0750    0   49 36372.0000 30774.0750  15.4%     -    0s
     0     0 30931.2658    0   55 36372.0000 30931.2658  15.0%     -    0s
H    0     0                    32803.000000 30931.2658  5.71%     -    0s
     0     0 30945.8473    0   57 32803.0000 30945.8473  5.66%     -    0s
     0     0 30947.1995    0   52 32803.0000 30947.1995  5.66%     -    0s
     0     0 30990.2651    0   49 32803.0000 30990.2651  5.53%     -    0s
     0     0 31001.0788    0   49 32803.0000 31001.0788  5.49%     -    0s
     0     0 31014.6533    0   56 32803.0000 31014.6533  5.45%     -    0s
     0     0 31015.2882    0   54 32803.0000 31015.2882  5.45%     -    0s
     0     0 31041.0215    0   55 32803.0000 31041.0215  5.37%     -    0s
     0     0 31061.7810    0   54 32803.0000 31061.7810  5.31%     -    0s
     0     0 31068.3802    0   56 32803.0000 31068.3802  5.29%     -    0s
     0     0 31072.1665    0   56 32803.0000 31072.1665  5.28%     -    0s
     0     0 31073.0409    0   58 32803.0000 31073.0409  5.27%     -    0s
     0     0 31092.6822    0   59 32803.0000 31092.6822  5.21%     -    0s
     0     0 31110.6625    0   59 32803.0000 31110.6625  5.16%     -    0s
     0     0 31113.6190    0   59 32803.0000 31113.6190  5.15%     -    0s
     0     0 31114.5782    0   60 32803.0000 31114.5782  5.15%     -    0s
     0     0 31118.5394    0   60 32803.0000 31118.5394  5.14%     -    0s
     0     0 31118.9251    0   60 32803.0000 31118.9251  5.13%     -    0s
     0     0 31125.2238    0   60 32803.0000 31125.2238  5.11%     -    0s
     0     0 31125.2238    0   60 32803.0000 31125.2238  5.11%     -    0s
     0     2 31126.3589    0   60 32803.0000 31126.3589  5.11%     -    0s
H   27    27                    32232.200000 31126.3589  3.43%   6.9    0s
H   38    38                    32185.816101 31126.3589  3.29%   5.7    0s
*   39    37              34    31679.000000 31126.3589  1.74%   5.7    0s
*  123    97              35    31664.000000 31135.9240  1.67%   5.8    0s
H  418   244                    31565.000000 31194.3051  1.17%   6.4    0s
*  728   360              35    31549.000000 31316.9675  0.74%   8.2    0s
H 1232   297                    31527.200000 31389.5655  0.44%  10.4    0s
H 1644   233                    31515.000000 31413.4175  0.32%  11.7    1s

Cutting planes:
  Gomory: 7
  Implied bound: 1
  MIR: 112
  Flow cover: 73

Explored 2518 nodes (31916 simplex iterations) in 1.71 seconds (1.21 work units)
Thread count was 1 (of 4 available processors)

Solution count 10: 31515 31527.2 31549 ... 36372

Optimal solution found (tolerance 1.00e-06)
Best objective 3.151500000000e+04, best bound 3.151500000000e+04, gap 0.0000%
Obj: 31515
